s td 56 7 64
b 1 21 24 26
b 2 22 23 25
b 3 17 23 25
b 4 18 24 26
b 5 17 25 57
b 6 18 26 58
b 7 27 30 32
b 8 28 29 31
b 9 29 31 37
b 10 30 32 38
b 11 31 37 61
b 12 32 38 62
b 13 53 56 58
b 14 54 55 57
b 15 51 55 57
b 16 52 56 58
b 17 17 51 57
b 18 18 52 58
b 19 59 62 64
b 20 60 61 63
b 21 37 61 63
b 22 38 62 64
b 23 7 37 63
b 24 8 38 64
b 25 1 2 8 9 33 35 39
b 26 2 8 9 33 35 39 41
b 27 2 3 8 9 41
b 28 2 3 5 41
b 29 8 33 38 39 41
b 30 36 38 39 41
b 31 1 2 9 33 35 37 39
b 32 1 2 4 9 33 37 39
b 33 1 4 33 37 39 42
b 34 1 4 6 42
b 35 34 37 39 42
b 36 2 4 7 37
b 37 1 2 9 33 35 39 50
b 38 1 2 9 39 44 46 50
b 39 1 2 9 16 44 46 50
b 40 1 2 10 16
b 41 9 12 13 16 44 46 50
b 42 12 13 16 20 44 46 50
b 43 13 16 18 20 44 46 50
b 44 11 16 18 20
b 45 18 20 44 46 48 50
b 46 18 43 44 48 50
b 47 18 43 44 52
b 48 12 13 16 19 44 46 50
b 49 12 16 17 19 44 46 50
b 50 14 16 17 19
b 51 17 19 44 46 47 50
b 52 17 45 46 47 50
b 53 17 45 46 51
b 54 9 12 13 15
b 55 39 44 46 49
b 56 33 35 40 50
1 4
2 3
3 5
4 6
5 17
6 18
7 10
8 9
9 11
10 12
11 21
12 22
13 16
14 15
15 17
16 18
17 53
18 47
19 22
20 21
21 23
22 24
23 36
24 29
25 26
25 31
25 37
26 27
26 29
27 28
29 30
31 32
32 33
32 36
33 34
33 35
37 38
37 56
38 39
38 55
39 40
39 41
41 42
41 48
41 54
42 43
43 44
43 45
45 46
46 47
48 49
49 50
49 51
51 52
52 53
